set factories := f1 f2 f3;
set warehouses := w1 w2 w3 w4;

param supply :=
f1 100
f2 150
f3 200;

param demand :=
w1 80
w2 120
w3 150
w4 100;

param cost:
       w1   w2   w3   w4 :=
f1     2    3   11    7
f2     1    0    6    1
f3     5    8   15    9;
